************************************************************************
file with basedata            : mm11_.bas
initial value random generator: 447042032
************************************************************************
projects                      :  1
jobs (incl. supersource/sink ):  12
horizon                       :  80
RESOURCES
  - renewable                 :  2   R
  - nonrenewable              :  2   N
  - doubly constrained        :  0   D
************************************************************************
PROJECT INFORMATION:
pronr.  #jobs rel.date duedate tardcost  MPM-Time
    1     10      0       21        6       21
************************************************************************
PRECEDENCE RELATIONS:
jobnr.    #modes  #successors   successors
   1        1          3           2   3   4
   2        3          1           7
   3        3          2           5   6
   4        3          3           5   6  11
   5        3          2           7  10
   6        3          2           9  10
   7        3          1           8
   8        3          1           9
   9        3          1          12
  10        3          1          12
  11        3          1          12
  12        1          0        
************************************************************************
REQUESTS/DURATIONS:
jobnr. mode duration  R 1  R 2  N 1  N 2
------------------------------------------------------------------------
  1      1     0       0    0    0    0
  2      1     5       3    0    5    0
         2     5       0    1    3    0
         3     6       2    0    0    3
  3      1     5       7    0    5    0
         2     6       7    0    0    5
         3     9       4    0    4    0
  4      1     5       4    0    0    4
         2     8       4    0    0    1
         3     9       3    0    8    0
  5      1     4       3    0    0    6
         2     7       0   10    0    5
         3     9       0    6    1    0
  6      1     2       6    0    0    7
         2     3       0    7    0    4
         3     5       4    0    0    3
  7      1     2      10    0    2    0
         2     7       6    0    0    9
         3     8       0    7    1    0
  8      1     5       1    0    0    4
         2     6       0    7    0    4
         3     7       0    5    0    1
  9      1     5       0    6    7    0
         2     7       4    0    0    9
         3    10       0    4    0    6
 10      1     5       7    0    0    8
         2     5       0   10    0    5
         3     8       0    4    7    0
 11      1     3       0    7    0   10
         2     6       5    0    5    0
         3     9       0    6    2    0
 12      1     0       0    0    0    0
************************************************************************
RESOURCEAVAILABILITIES:
  R 1  R 2  N 1  N 2
   13   12   28   47
************************************************************************
MAXIMAL LAGS:
from  to  type  delay
    1   12   ES      0
    1    2   ES      0
    2   12   ES      0
    1    3   ES      0
    3   12   ES      0
    1    4   ES      0
    4   12   ES      0
    1    5   ES      0
    5   12   ES      0
    1    6   ES      0
    6   12   ES      0
    1    7   ES      0
    7   12   ES      0
    1    8   ES      0
    8   12   ES      0
    1    9   ES      0
    9   12   ES      0
    1   10   ES      0
   10   12   ES      0
    1   11   ES      0
   11   12   ES      0
    1   12   ES      0
    2    7   SS     -5
    2    7   SE    -12
    2    7   ES      9
    2    7   EE     -6
    3    5   SS      0
    3    5   SE     -2
    3    5   ES     -4
    3    5   EE    -10
    3    6   SS     12
    3    6   SE     -4
    3    6   ES     -1
    3    6   EE      8
    4    5   SS      4
    4    5   SE      0
    4    5   ES      9
    4    5   EE      5
    4    6   SS     -2
    4    6   SE    -12
    4    6   ES     -9
    4    6   EE     -4
    4   11   SS     -7
    4   11   SE      6
    4   11   ES     -4
    4   11   EE    -11
    5    7   SS     -9
    5    7   SE      7
    5    7   ES      1
    5    7   EE     -1
    5   10   SS     11
    5   10   SE     -2
    5   10   ES      1
    5   10   EE      7
    6    9   SS      4
    6    9   SE     -9
    9    6   SE      0
    6    9   ES      0
    6    9   EE      6
    6   10   SS     -6
    6   10   SE     -4
    6   10   ES    -11
    6   10   EE     10
    7    8   SS      1
    7    8   SE    -12
    7    8   ES      4
    7    8   EE      5
    8    9   SS      9
    8    9   SE     11
    8    9   ES     11
    8    9   EE     11
************************************************************************
